c description: Random 3-CNF over 23 variables and 98 clauses
c generator: CNFgen (0.9.2)
c copyright: (C) 2012-2022 Massimo Lauria <massimo.lauria@uniroma1.it>
c url: https://massimolauria.net/cnfgen
c command line: cnfgen --output ../CNF/23_bit_98_18.cnf randkcnf 3 23 98
c
p cnf 23 98
2 4 22 0
16 -18 19 0
7 -14 17 0
-18 -20 23 0
-8 -15 17 0
-8 10 23 0
1 -2 -6 0
19 21 -22 0
10 11 18 0
6 8 -11 0
3 -7 -14 0
-10 -15 -16 0
-4 -10 -12 0
-8 -10 16 0
10 -13 14 0
1 -2 -20 0
7 -14 19 0
-11 13 15 0
-3 10 22 0
-5 -7 14 0
-7 -20 -21 0
6 8 12 0
6 -9 -17 0
-15 -16 20 0
-2 5 -22 0
1 2 -14 0
8 14 -21 0
8 10 -13 0
11 -16 20 0
-9 -18 -21 0
-3 10 16 0
3 10 -23 0
-6 20 22 0
1 13 -21 0
-1 -8 -9 0
-14 -17 18 0
-11 18 19 0
7 11 -19 0
8 10 -20 0
-7 13 16 0
6 -7 19 0
-11 13 -20 0
16 17 -20 0
1 11 -13 0
9 14 -22 0
6 -12 21 0
-1 -7 -12 0
7 9 16 0
-2 7 9 0
3 -11 -12 0
-12 13 15 0
2 -8 -10 0
2 -17 23 0
3 -12 -19 0
3 17 -22 0
3 -6 15 0
4 5 -17 0
-15 16 23 0
3 9 -13 0
9 22 23 0
5 10 21 0
-4 11 20 0
3 -4 -20 0
-4 -15 -16 0
-1 9 21 0
16 21 -23 0
-3 15 19 0
8 12 -20 0
-10 -11 20 0
-5 -7 20 0
5 -10 22 0
-6 -13 15 0
-3 11 -21 0
-11 17 19 0
11 12 -15 0
12 -14 -17 0
-3 6 -11 0
-3 -15 19 0
1 4 -17 0
4 -13 17 0
-1 4 -10 0
-19 20 21 0
-12 -14 15 0
-9 -11 -18 0
-2 12 19 0
9 -20 -21 0
-1 5 -7 0
1 -4 -12 0
6 -13 -18 0
-12 17 19 0
-14 -18 22 0
8 18 22 0
-5 18 23 0
8 -18 -22 0
5 9 12 0
6 -14 19 0
5 6 -20 0
-1 8 10 0
